c FILE /home/rafael/Documents/HappySet/MIHS/inputs/happygen/output/graph_d_regular_k10_p0.3_v50_20241127_082702.txt
c SOURCE This is a d-regular graph formed for the happy graph colouring problem.
c DESCRIPTION It was generated using the problem generator of Rhyd Lewis
c
c GRAPH STATS
c Seed                             = -896688458
c Number of Nodes                  = 50
c Number of colours k              = 10
c Number of pre-assignments        = 15
c Degree of all vertices           = 6
c Density                          = 0.122449
c 
c The degrees of nodes 1 to 50, respectively, are as follows 
c [6, 6, 6, 6, 6, 6, 6, 6, 6, 6, 6, 6, 6, 6, 6, 6, 6, 6, 6, 6, 6, 6, 6, 6, 6, 6, 
c  6, 6, 6, 6, 6, 6, 6, 6, 6, 6, 6, 6, 6, 6, 6, 6, 6, 6, 6, 6, 6, 6, 6, 6] 
c  
p edge 50 150 10
e 1 8
e 1 15
e 1 16
e 1 19
e 1 31
e 1 35
e 2 20
e 2 26
e 2 27
e 2 33
e 2 42
e 2 50
e 3 17
e 3 18
e 3 37
e 3 38
e 3 44
e 3 50
e 4 14
e 4 18
e 4 32
e 4 38
e 4 42
e 4 48
e 5 10
e 5 11
e 5 15
e 5 35
e 5 45
e 5 48
e 6 7
e 6 11
e 6 30
e 6 31
e 6 36
e 6 48
e 7 14
e 7 25
e 7 30
e 7 36
e 7 38
e 8 12
e 8 27
e 8 39
e 8 40
e 8 41
e 9 19
e 9 21
e 9 27
e 9 29
e 9 30
e 9 35
e 10 12
e 10 16
e 10 24
e 10 25
e 10 47
e 11 14
e 11 21
e 11 28
e 11 40
e 12 13
e 12 15
e 12 26
e 12 34
e 13 23
e 13 30
e 13 31
e 13 39
e 13 42
e 14 32
e 14 38
e 14 46
e 15 31
e 15 47
e 15 49
e 16 26
e 16 44
e 16 45
e 16 48
e 17 38
e 17 39
e 17 40
e 17 43
e 17 46
e 18 20
e 18 44
e 18 45
e 18 49
e 19 22
e 19 39
e 19 44
e 19 49
e 20 32
e 20 33
e 20 36
e 20 47
e 21 43
e 21 45
e 21 46
e 21 48
e 22 23
e 22 26
e 22 31
e 22 34
e 22 38
e 23 25
e 23 26
e 23 37
e 23 47
e 24 28
e 24 36
e 24 39
e 24 41
e 24 46
e 25 35
e 25 42
e 25 43
e 26 40
e 27 31
e 27 43
e 27 47
e 28 32
e 28 34
e 28 42
e 28 47
e 29 33
e 29 41
e 29 46
e 29 48
e 29 49
e 30 34
e 30 49
e 32 33
e 32 43
e 33 34
e 33 37
e 34 41
e 35 43
e 35 50
e 36 42
e 36 46
e 37 41
e 37 45
e 37 50
e 39 50
e 40 41
e 40 44
e 44 45
e 49 50
n 4 8
n 10 7
n 11 6
n 15 3
n 17 2
n 22 5
n 23 5
n 26 5
n 27 9
n 30 4
n 33 1
n 36 10
n 39 2
n 41 9
n 48 8
